Minimize

15 mat_0_0 + 5 mat_0_1 + 30 mat_1_0 + 70 mat_1_1 + 50 mat_2_0 + 100 mat_2_1


Subject To

a0: mat_0_0 + mat_1_0 + mat_2_0 <= 90
a1: mat_0_1 + mat_1_1 + mat_2_1 <= 50
b0: mat_0_0 + mat_0_1 >= 70
b1: mat_1_0 + mat_1_1 >= 15
b2: mat_2_0 + mat_2_1 >= 5





General

 mat_0_0 mat_0_1 mat_1_0 mat_1_1 mat_2_0 mat_2_1



End
